n = 11;
k = 4;
adjacent = [| 0, 1, 0, 1, 0, 0, 1, 0, 1, 0, 0
| 1, 0, 1, 0, 0, 1, 0, 1, 0, 0, 0
| 0, 1, 0, 0, 1, 0, 1, 0, 0, 1, 0
| 1, 0, 0, 0, 1, 1, 0, 0, 0, 1, 0
| 0, 0, 1, 1, 0, 0, 0, 1, 1, 0, 0
| 0, 1, 0, 1, 0, 0, 0, 0, 0, 0, 1
| 1, 0, 1, 0, 0, 0, 0, 0, 0, 0, 1
| 0, 1, 0, 0, 1, 0, 0, 0, 0, 0, 1
| 1, 0, 0, 0, 1, 0, 0, 0, 0, 0, 1
| 0, 0, 1, 1, 0, 0, 0, 0, 0, 0, 1
| 0, 0, 0, 0, 0, 1, 1, 1, 1, 1, 0 |];
